Nb of jobs, Nb of Machines, Time seed, Machine seed, Upper bound, Lower bound
10,5,-1,-1,-1,-1
Times
91,8,6,32,88
71,36,10,33,19
81,7,52,29,33
1,89,65,77,23
24,19,88,15,89
86,98,93,10,84
96,90,8,57,72
41,84,60,5,66
62,24,65,11,66
92,75,88,56,97
Machines
3,4,2,1,5
4,5,1,3,2
3,5,4,1,2
2,3,4,5,1
1,5,3,2,4
5,4,2,1,3
1,3,2,5,4
1,4,2,5,3
4,5,3,1,2
4,5,3,1,2
